TYPE : Vertex Cover
DIMENSION: 33
EDGE_DATA_SECTION:
0 19
0 21
1 2
1 8
1 21
1 22
1 30
2 4
2 16
2 18
2 24
2 32
3 21
4 7
4 11
4 15
4 24
4 25
5 15
5 23
5 27
5 28
6 8
6 10
6 11
6 13
6 20
6 29
7 31
8 12
8 21
8 24
9 11
9 21
10 13
10 19
10 20
10 27
11 14
11 20
11 26
12 21
13 22
13 25
13 30
14 16
15 19
15 28
15 29
16 22
16 28
18 30
19 21
19 28
20 23
20 31
21 30
22 30
23 30
24 26
24 28
24 32
25 26
25 32
27 29
28 29
29 31
29 32
-1
VERTEX_DEGREE:
2.0 5.0 6.0 1.0 6.0 4.0 6.0 2.0 5.0 2.0 5.0 6.0 2.0 5.0 2.0 5.0 4.0 0.0 2.0 5.0 5.0 8.0 4.0 3.0 6.0 4.0 3.0 3.0 6.0 6.0 6.0 3.0 4.0
VERTEX_COVER:
2 5 6 7 8 10 11 15 16 19 20 21 22 24 25 29 30
EOF
